NAME: rbg019a.sop
TYPE: SOP
COMMENT: Stacker crane application (Norbert Ascheuer)
DIMENSION: 21
EDGE_WEIGHT_TYPE: EXPLICIT
EDGE_WEIGHT_FORMAT: FULL_MATRIX 
EDGE_WEIGHT_SECTION
21
    0    0    0    0    0    0    0    0    0    0    0    0    0    0    0    0    0    0    0    0 1000000
   -1    0   23   23   28   33   31   23   33   33   24   33   23   25   25   33   21   10   25   33    0
   -1   23    0   10   21   25   24   10   25   25   12   25   10   19   15   25   11   23   19   25    0
   -1   10   23    0   10   15   12   23   15   15   18   15   23   18   14   15   23   28   18   15    0
   -1   20   12   11    0   24   23   12   24   24    6   24   12   19   12   24   14   24   19   24    0
   -1   -1   -1   10   18    0   23   13   24   24   13   24   19   12   12   24   12   23   12   24    0
   -1   -1   -1   -1   -1    0    0   25    0    0   24    0   25   23   23    0   26   31   23    0    0
   -1   -1   -1   -1   -1   11    0    0   11   11   23   11   24   20   20   11   25   31   20   11    0
   -1   -1   -1   -1   -1   -1   -1   16    0   23   12   23   16   11    0   23   18   25   11   23    0
   -1   -1   -1   -1   -1   -1   -1   -1   23    0   12   23   16    9    2   23   18   25    9   23    0
   -1   -1   -1   -1   -1   -1   -1   -1   33   33    0   33   23   25   25   33   21   10   25   33    0
   -1   -1   -1   -1   -1   -1   -1   -1   23   23   11    0   15   14   10   23   16   24   14   23    0
   -1   -1   -1   -1   -1   -1   -1   -1   -1   -1   24    0    0   23   23    0   26   31   23    0    0
   -1   -1   -1   -1   -1   -1   -1   -1   -1   -1   12   25    0    0   16   25   10   21   19   25    0
   -1   -1   -1   -1   -1   -1   -1   -1   -1   -1   -1   -1   -1   18    0   23   18   25   18   23    0
   -1   -1   -1   -1   -1   -1   -1   -1   -1   -1   -1   -1   -1   -1   21    0   25   31   21   14    0
   -1   -1   -1   -1   -1   -1   -1   -1   -1   -1   -1   -1   -1   -1   25   33    0   10   25   33    0
   -1   -1   -1   -1   -1   -1   -1   -1   -1   -1   -1   -1   -1   -1   -1    0   26    0   23    0    0
   -1   -1   -1   -1   -1   -1   -1   -1   -1   -1   -1   -1   -1   -1   -1   -1   20    0    0   31    0
   -1   -1   -1   -1   -1   -1   -1   -1   -1   -1   -1   -1   -1   -1   -1   -1   -1   28   14    0    0
   -1   -1   -1   -1   -1   -1   -1   -1   -1   -1   -1   -1   -1   -1   -1   -1   -1   -1   -1   -1    0
